%nprocs=36
%mem=36000MB
%chk=Cat1_TSOA_CfA.chk
#p pbe1pbe/gen opt=(ts,NoEigenTest,calcfc,AddRedun,nolinear,maxstep=5) empiricaldispersion=gd3bj pseudo=read freq=noraman

Cat1_TSOA_CfA

0 2 
C    -0.296661    -1.300595     0.813158
C    -0.948878    -0.690078     1.903024
C    -2.297276    -0.924764     2.125988
C    -3.037849    -1.804710     1.318625
C    -2.349048    -2.495915     0.315415
C    -0.994376    -2.279714     0.080491
H    -0.401117    -0.001355     2.549029
H    -2.796608    -0.405521     2.949908
C    -4.511563    -1.987240     1.524323
H    -4.862585    -2.945119     1.114108
H    -4.781521    -1.953626     2.590606
H    -5.080978    -1.186637     1.019993
H    -2.884124    -3.228227    -0.296824
H    -0.473318    -2.854447    -0.688827
I     1.967571    -1.733046     1.013420
Br     2.054259     0.356389    -2.378222
Ni     0.629288    -0.044368    -0.490116
N     0.452482     1.713613     0.567246
C     1.435951     2.351207     1.219202
C     1.147481     3.473050     2.008187
C    -0.157033     3.934636     2.097728
C    -1.150393     3.297527     1.362748
C    -0.805262     2.189598     0.590345
C    -1.769946     1.525435    -0.318110
C    -3.121555     1.867199    -0.364221
C    -3.925686     1.268381    -1.326711
C    -3.355989     0.372657    -2.220051
C    -1.996680     0.053829    -2.109676
N    -1.247302     0.613655    -1.151427
C     2.833897     1.856049     1.071119
H     1.959187     3.974037     2.537930
H    -0.398038     4.804197     2.713176
H    -2.171586     3.675468     1.372796
H    -3.542312     2.589089     0.334310
H    -4.988306     1.513762    -1.387414
H    -3.951661    -0.092443    -3.007224
C    -1.348639    -0.908740    -3.046333
H     3.015509     1.546729     0.029754
H     2.999601     0.968818     1.700415
H     3.552649     2.632396     1.363625
H    -1.297380    -1.907870    -2.587659
H    -0.315734    -0.593931    -3.260882
H    -1.921279    -0.992936    -3.979303

1 17 B
15 17 B
1 15 B

-Ni -Zn -Br -I 0
Def2TZVP
****
-C -H -N -O -F -Cl 0
Def2SVP
****

-Ni -Zn -Br -I 0
Def2TZVP

